p edge 480 3360
e 1 7
e 1 169
e 1 177
e 1 194
e 1 257
e 1 296
e 1 434
e 2 90
e 2 116
e 2 139
e 2 189
e 2 237
e 2 368
e 2 444
e 3 4
e 3 167
e 3 171
e 3 212
e 3 262
e 3 293
e 3 315
e 4 95
e 4 128
e 4 154
e 4 256
e 4 266
e 4 281
e 4 304
e 5 68
e 5 70
e 5 130
e 5 215
e 5 372
e 5 385
e 5 477
e 6 35
e 6 74
e 6 123
e 6 238
e 6 259
e 6 278
e 6 371
e 7 113
e 7 301
e 7 331
e 7 341
e 7 346
e 7 359
e 7 479
e 8 159
e 8 214
e 8 242
e 8 269
e 8 366
e 8 408
e 8 446
e 9 64
e 9 65
e 9 222
e 9 235
e 9 260
e 9 359
e 9 427
e 10 6
e 10 77
e 10 91
e 10 135
e 10 146
e 10 152
e 10 278
e 11 36
e 11 111
e 11 158
e 11 314
e 11 386
e 11 405
e 11 439
e 12 66
e 12 169
e 12 224
e 12 254
e 12 299
e 12 388
e 12 396
e 13 45
e 13 63
e 13 129
e 13 334
e 13 403
e 13 406
e 13 412
e 14 44
e 14 77
e 14 159
e 14 297
e 14 299
e 14 392
e 14 461
e 15 100
e 15 140
e 15 143
e 15 149
e 15 190
e 15 194
e 15 339
e 16 58
e 16 222
e 16 225
e 16 225
e 16 255
e 16 263
e 16 274
e 17 41
e 17 49
e 17 136
e 17 162
e 17 392
e 17 415
e 17 433
e 18 51
e 18 83
e 18 134
e 18 218
e 18 326
e 18 358
e 18 414
e 19 77
e 19 114
e 19 158
e 19 165
e 19 254
e 19 260
e 19 384
e 20 17
e 20 25
e 20 179
e 20 209
e 20 328
e 20 351
e 20 476
e 21 2
e 21 57
e 21 72
e 21 153
e 21 344
e 21 437
e 21 455
e 22 42
e 22 89
e 22 177
e 22 201
e 22 300
e 22 348
e 22 407
e 23 4
e 23 50
e 23 99
e 23 113
e 23 262
e 23 296
e 23 375
e 24 76
e 24 232
e 24 246
e 24 257
e 24 261
e 24 294
e 24 398
e 25 2
e 25 131
e 25 211
e 25 319
e 25 395
e 25 400
e 25 472
e 26 30
e 26 74
e 26 323
e 26 326
e 26 391
e 26 392
e 26 475
e 27 250
e 27 305
e 27 349
e 27 353
e 27 362
e 27 402
e 27 421
e 28 139
e 28 240
e 28 256
e 28 342
e 28 346
e 28 354
e 28 451
e 29 21
e 29 109
e 29 122
e 29 214
e 29 358
e 29 415
e 29 461
e 30 28
e 30 117
e 30 222
e 30 241
e 30 294
e 30 371
e 30 407
e 31 27
e 31 130
e 31 136
e 31 288
e 31 290
e 31 399
e 31 453
e 32 114
e 32 284
e 32 300
e 32 330
e 32 403
e 32 421
e 32 466
e 33 43
e 33 145
e 33 223
e 33 309
e 33 362
e 33 412
e 33 447
e 34 52
e 34 73
e 34 82
e 34 88
e 34 160
e 34 252
e 34 272
e 35 126
e 35 166
e 35 187
e 35 249
e 35 364
e 35 368
e 35 480
e 36 99
e 36 135
e 36 136
e 36 181
e 36 197
e 36 283
e 36 369
e 37 1
e 37 8
e 37 59
e 37 188
e 37 214
e 37 456
e 37 471
e 38 17
e 38 142
e 38 362
e 38 412
e 38 436
e 38 442
e 38 456
e 39 7
e 39 17
e 39 75
e 39 108
e 39 159
e 39 199
e 39 416
e 40 82
e 40 190
e 40 208
e 40 248
e 40 251
e 40 256
e 40 422
e 41 66
e 41 72
e 41 119
e 41 125
e 41 178
e 41 224
e 41 404
e 42 125
e 42 125
e 42 166
e 42 190
e 42 242
e 42 260
e 42 266
e 43 6
e 43 75
e 43 164
e 43 216
e 43 276
e 43 320
e 43 334
e 44 95
e 44 157
e 44 170
e 44 195
e 44 225
e 44 269
e 44 273
e 45 25
e 45 181
e 45 240
e 45 321
e 45 353
e 45 412
e 45 414
e 46 48
e 46 81
e 46 225
e 46 244
e 46 299
e 46 423
e 46 448
e 47 29
e 47 32
e 47 74
e 47 142
e 47 162
e 47 264
e 47 287
e 48 94
e 48 216
e 48 289
e 48 303
e 48 411
e 48 411
e 48 469
e 49 14
e 49 17
e 49 189
e 49 230
e 49 241
e 49 282
e 49 443
e 50 46
e 50 98
e 50 179
e 50 181
e 50 241
e 50 438
e 50 469
e 51 67
e 51 210
e 51 229
e 51 325
e 51 396
e 51 433
e 51 466
e 52 7
e 52 97
e 52 156
e 52 165
e 52 196
e 52 419
e 52 472
e 53 110
e 53 127
e 53 198
e 53 221
e 53 296
e 53 314
e 53 447
e 54 20
e 54 22
e 54 26
e 54 123
e 54 140
e 54 293
e 54 389
e 55 21
e 55 67
e 55 142
e 55 164
e 55 250
e 55 363
e 55 463
e 56 108
e 56 164
e 56 264
e 56 277
e 56 300
e 56 348
e 56 432
e 57 33
e 57 150
e 57 165
e 57 188
e 57 336
e 57 368
e 57 466
e 58 115
e 58 162
e 58 218
e 58 324
e 58 445
e 58 469
e 58 478
e 59 54
e 59 67
e 59 255
e 59 313
e 59 404
e 59 425
e 59 442
e 60 71
e 60 189
e 60 400
e 60 402
e 60 420
e 60 454
e 60 462
e 61 85
e 61 109
e 61 259
e 61 290
e 61 348
e 61 385
e 61 436
e 62 75
e 62 163
e 62 313
e 62 328
e 62 347
e 62 348
e 62 351
e 63 40
e 63 73
e 63 175
e 63 220
e 63 310
e 63 323
e 63 335
e 64 49
e 64 83
e 64 126
e 64 233
e 64 309
e 64 403
e 64 439
e 65 22
e 65 59
e 65 82
e 65 212
e 65 262
e 65 293
e 65 340
e 66 24
e 66 39
e 66 218
e 66 297
e 66 313
e 66 340
e 66 438
e 67 161
e 67 192
e 67 202
e 67 285
e 67 293
e 67 460
e 67 469
e 68 37
e 68 122
e 68 146
e 68 169
e 68 235
e 68 293
e 68 323
e 69 147
e 69 186
e 69 216
e 69 219
e 69 226
e 69 300
e 69 346
e 70 6
e 70 60
e 70 139
e 70 175
e 70 193
e 70 274
e 70 467
e 71 70
e 71 109
e 71 129
e 71 297
e 71 314
e 71 357
e 71 444
e 72 256
e 72 265
e 72 294
e 72 326
e 72 405
e 72 458
e 72 470
e 73 98
e 73 173
e 73 209
e 73 270
e 73 432
e 73 446
e 73 457
e 74 118
e 74 188
e 74 263
e 74 275
e 74 361
e 74 389
e 74 426
e 75 19
e 75 27
e 75 104
e 75 307
e 75 310
e 75 321
e 75 384
e 76 43
e 76 229
e 76 249
e 76 271
e 76 272
e 76 273
e 76 345
e 77 25
e 77 86
e 77 281
e 77 411
e 77 421
e 77 445
e 77 456
e 78 129
e 78 207
e 78 331
e 78 362
e 78 398
e 78 422
e 78 466
e 79 12
e 79 53
e 79 67
e 79 185
e 79 390
e 79 413
e 79 431
e 80 1
e 80 25
e 80 177
e 80 204
e 80 214
e 80 311
e 80 311
e 81 77
e 81 128
e 81 200
e 81 286
e 81 335
e 81 398
e 81 452
e 82 101
e 82 224
e 82 306
e 82 337
e 82 349
e 82 373
e 82 376
e 83 8
e 83 25
e 83 151
e 83 236
e 83 294
e 83 370
e 83 470
e 84 28
e 84 74
e 84 230
e 84 278
e 84 320
e 84 346
e 84 438
e 85 108
e 85 268
e 85 286
e 85 310
e 85 322
e 85 416
e 85 438
e 86 22
e 86 33
e 86 110
e 86 239
e 86 356
e 86 425
e 86 449
e 87 68
e 87 75
e 87 131
e 87 171
e 87 242
e 87 340
e 87 380
e 88 36
e 88 175
e 88 272
e 88 362
e 88 369
e 88 418
e 88 442
e 89 121
e 89 256
e 89 272
e 89 315
e 89 356
e 89 456
e 89 457
e 90 101
e 90 223
e 90 241
e 90 262
e 90 271
e 90 378
e 90 443
e 91 42
e 91 78
e 91 185
e 91 351
e 91 412
e 91 453
e 91 476
e 92 44
e 92 255
e 92 259
e 92 298
e 92 320
e 92 340
e 92 433
e 93 105
e 93 136
e 93 239
e 93 277
e 93 305
e 93 341
e 93 377
e 94 83
e 94 88
e 94 354
e 94 358
e 94 358
e 94 366
e 94 416
e 95 31
e 95 69
e 95 86
e 95 148
e 95 398
e 95 454
e 95 463
e 96 26
e 96 30
e 96 163
e 96 249
e 96 271
e 96 348
e 96 360
e 97 59
e 97 66
e 97 109
e 97 189
e 97 204
e 97 248
e 97 405
e 98 14
e 98 30
e 98 73
e 98 103
e 98 183
e 98 226
e 98 374
e 99 68
e 99 120
e 99 202
e 99 278
e 99 313
e 99 360
e 99 426
e 100 105
e 100 188
e 100 218
e 100 234
e 100 430
e 100 445
e 100 459
e 101 36
e 101 114
e 101 116
e 101 178
e 101 276
e 101 293
e 101 364
e 102 219
e 102 225
e 102 352
e 102 397
e 102 429
e 102 456
e 102 471
e 103 36
e 103 169
e 103 254
e 103 265
e 103 352
e 103 364
e 103 401
e 104 108
e 104 146
e 104 291
e 104 293
e 104 330
e 104 392
e 104 414
e 105 28
e 105 73
e 105 219
e 105 269
e 105 305
e 105 306
e 105 449
e 106 126
e 106 148
e 106 246
e 106 291
e 106 303
e 106 361
e 106 439
e 107 64
e 107 66
e 107 93
e 107 172
e 107 219
e 107 244
e 107 310
e 108 102
e 108 160
e 108 192
e 108 243
e 108 328
e 108 374
e 108 407
e 109 40
e 109 71
e 109 125
e 109 154
e 109 241
e 109 290
e 109 362
e 110 48
e 110 78
e 110 82
e 110 109
e 110 168
e 110 413
e 110 469
e 111 106
e 111 136
e 111 239
e 111 293
e 111 354
e 111 401
e 111 467
e 112 60
e 112 78
e 112 143
e 112 221
e 112 267
e 112 284
e 112 359
e 113 34
e 113 35
e 113 116
e 113 158
e 113 231
e 113 315
e 113 362
e 114 33
e 114 105
e 114 217
e 114 221
e 114 273
e 114 338
e 114 378
e 115 26
e 115 95
e 115 114
e 115 124
e 115 259
e 115 327
e 115 456
e 116 15
e 116 180
e 116 290
e 116 320
e 116 369
e 116 390
e 116 426
e 117 100
e 117 115
e 117 166
e 117 166
e 117 168
e 117 245
e 117 322
e 118 62
e 118 117
e 118 130
e 118 156
e 118 202
e 118 210
e 118 231
e 119 39
e 119 188
e 119 270
e 119 328
e 119 376
e 119 451
e 119 478
e 120 46
e 120 85
e 120 222
e 120 288
e 120 303
e 120 353
e 120 412
e 121 94
e 121 126
e 121 241
e 121 254
e 121 310
e 121 402
e 121 427
e 122 39
e 122 61
e 122 76
e 122 150
e 122 163
e 122 442
e 122 450
e 123 13
e 123 180
e 123 262
e 123 279
e 123 395
e 123 397
e 123 425
e 124 1
e 124 6
e 124 44
e 124 54
e 124 335
e 124 393
e 124 394
e 125 18
e 125 36
e 125 282
e 125 292
e 125 351
e 125 356
e 125 385
e 126 84
e 126 97
e 126 100
e 126 254
e 126 257
e 126 289
e 126 370
e 127 124
e 127 163
e 127 260
e 127 292
e 127 321
e 127 368
e 127 409
e 128 79
e 128 100
e 128 156
e 128 184
e 128 318
e 128 447
e 128 473
e 129 56
e 129 202
e 129 257
e 129 311
e 129 336
e 129 373
e 129 458
e 130 58
e 130 89
e 130 93
e 130 184
e 130 192
e 130 309
e 130 322
e 131 27
e 131 217
e 131 254
e 131 308
e 131 345
e 131 445
e 131 458
e 132 61
e 132 94
e 132 141
e 132 191
e 132 192
e 132 264
e 132 430
e 133 29
e 133 77
e 133 105
e 133 120
e 133 198
e 133 320
e 133 418
e 134 54
e 134 63
e 134 157
e 134 230
e 134 240
e 134 298
e 134 319
e 135 2
e 135 61
e 135 149
e 135 207
e 135 316
e 135 350
e 135 442
e 136 28
e 136 50
e 136 171
e 136 296
e 136 342
e 136 370
e 136 406
e 137 40
e 137 142
e 137 175
e 137 195
e 137 311
e 137 385
e 137 430
e 138 133
e 138 203
e 138 235
e 138 310
e 138 334
e 138 366
e 138 394
e 139 15
e 139 44
e 139 217
e 139 265
e 139 311
e 139 386
e 139 455
e 140 2
e 140 124
e 140 129
e 140 164
e 140 202
e 140 393
e 140 454
e 141 60
e 141 140
e 141 236
e 141 244
e 141 251
e 141 282
e 141 315
e 142 158
e 142 174
e 142 238
e 142 254
e 142 263
e 142 441
e 142 454
e 143 53
e 143 64
e 143 205
e 143 234
e 143 349
e 143 363
e 143 459
e 144 20
e 144 34
e 144 152
e 144 163
e 144 189
e 144 406
e 144 450
e 145 25
e 145 77
e 145 152
e 145 158
e 145 342
e 145 359
e 145 364
e 146 54
e 146 123
e 146 193
e 146 315
e 146 339
e 146 437
e 146 447
e 147 229
e 147 241
e 147 275
e 147 280
e 147 307
e 147 336
e 147 448
e 148 85
e 148 90
e 148 104
e 148 126
e 148 143
e 148 153
e 148 248
e 149 18
e 149 156
e 149 173
e 149 216
e 149 267
e 149 407
e 149 474
e 150 56
e 150 65
e 150 121
e 150 169
e 150 194
e 150 378
e 150 462
e 151 124
e 151 168
e 151 280
e 151 286
e 151 370
e 151 404
e 151 435
e 152 137
e 152 159
e 152 243
e 152 333
e 152 341
e 152 443
e 152 471
e 153 119
e 153 279
e 153 366
e 153 368
e 153 398
e 153 455
e 153 471
e 154 18
e 154 57
e 154 167
e 154 229
e 154 233
e 154 345
e 154 480
e 155 2
e 155 51
e 155 57
e 155 75
e 155 215
e 155 221
e 155 362
e 156 14
e 156 116
e 156 215
e 156 238
e 156 242
e 156 280
e 156 391
e 157 15
e 157 83
e 157 153
e 157 200
e 157 314
e 157 347
e 157 377
e 158 63
e 158 102
e 158 135
e 158 151
e 158 201
e 158 301
e 158 461
e 159 56
e 159 187
e 159 218
e 159 274
e 159 325
e 159 432
e 159 460
e 160 58
e 160 115
e 160 128
e 160 206
e 160 374
e 160 413
e 160 466
e 161 26
e 161 61
e 161 86
e 161 115
e 161 200
e 161 302
e 161 387
e 162 3
e 162 50
e 162 64
e 162 100
e 162 200
e 162 411
e 162 432
e 163 86
e 163 123
e 163 187
e 163 188
e 163 206
e 163 386
e 163 389
e 164 78
e 164 123
e 164 166
e 164 269
e 164 275
e 164 323
e 164 362
e 165 40
e 165 148
e 165 162
e 165 330
e 165 387
e 165 439
e 165 440
e 166 74
e 166 208
e 166 373
e 166 382
e 166 408
e 166 444
e 166 451
e 167 20
e 167 49
e 167 58
e 167 184
e 167 352
e 167 391
e 167 435
e 168 26
e 168 40
e 168 149
e 168 246
e 168 297
e 168 375
e 168 424
e 169 79
e 169 142
e 169 335
e 169 348
e 169 373
e 169 419
e 169 467
e 170 85
e 170 113
e 170 132
e 170 237
e 170 250
e 170 254
e 170 472
e 171 44
e 171 113
e 171 142
e 171 340
e 171 346
e 171 458
e 171 469
e 172 26
e 172 44
e 172 168
e 172 226
e 172 250
e 172 330
e 172 439
e 173 156
e 173 193
e 173 195
e 173 341
e 173 343
e 173 359
e 173 368
e 174 11
e 174 88
e 174 176
e 174 196
e 174 235
e 174 301
e 174 377
e 175 9
e 175 213
e 175 240
e 175 252
e 175 298
e 175 364
e 175 393
e 176 15
e 176 23
e 176 201
e 176 213
e 176 226
e 176 297
e 176 480
e 177 31
e 177 131
e 177 146
e 177 210
e 177 360
e 177 377
e 177 378
e 178 35
e 178 101
e 178 191
e 178 199
e 178 337
e 178 338
e 178 475
e 179 79
e 179 96
e 179 155
e 179 330
e 179 353
e 179 394
e 179 463
e 180 126
e 180 161
e 180 170
e 180 226
e 180 337
e 180 406
e 180 437
e 181 172
e 181 176
e 181 273
e 181 338
e 181 346
e 181 368
e 181 410
e 182 124
e 182 263
e 182 319
e 182 355
e 182 367
e 182 440
e 182 478
e 183 152
e 183 198
e 183 225
e 183 266
e 183 325
e 183 409
e 183 470
e 184 121
e 184 142
e 184 293
e 184 307
e 184 336
e 184 462
e 184 468
e 185 68
e 185 96
e 185 240
e 185 247
e 185 302
e 185 387
e 185 473
e 186 115
e 186 157
e 186 200
e 186 259
e 186 353
e 186 427
e 186 441
e 187 5
e 187 46
e 187 86
e 187 86
e 187 128
e 187 221
e 187 229
e 188 21
e 188 77
e 188 109
e 188 117
e 188 158
e 188 314
e 188 364
e 189 14
e 189 126
e 189 132
e 189 134
e 189 140
e 189 212
e 189 305
e 190 113
e 190 211
e 190 251
e 190 300
e 190 346
e 190 371
e 190 479
e 191 118
e 191 179
e 191 274
e 191 296
e 191 310
e 191 378
e 191 466
e 192 5
e 192 76
e 192 360
e 192 405
e 192 427
e 192 431
e 192 464
e 193 67
e 193 96
e 193 140
e 193 160
e 193 253
e 193 419
e 193 431
e 194 135
e 194 250
e 194 253
e 194 266
e 194 272
e 194 445
e 194 448
e 195 31
e 195 142
e 195 261
e 195 322
e 195 415
e 195 432
e 195 441
e 196 24
e 196 75
e 196 78
e 196 191
e 196 227
e 196 352
e 196 377
e 197 27
e 197 88
e 197 103
e 197 121
e 197 137
e 197 179
e 197 324
e 198 38
e 198 58
e 198 70
e 198 221
e 198 254
e 198 322
e 198 456
e 199 1
e 199 34
e 199 100
e 199 131
e 199 222
e 199 226
e 199 474
e 200 2
e 200 17
e 200 33
e 200 132
e 200 274
e 200 304
e 200 415
e 201 40
e 201 55
e 201 227
e 201 231
e 201 281
e 201 325
e 201 375
e 202 42
e 202 68
e 202 70
e 202 121
e 202 198
e 202 239
e 202 278
e 203 107
e 203 115
e 203 374
e 203 420
e 203 423
e 203 435
e 203 477
e 204 54
e 204 66
e 204 147
e 204 275
e 204 451
e 204 460
e 204 462
e 205 53
e 205 146
e 205 149
e 205 190
e 205 256
e 205 323
e 205 365
e 206 74
e 206 153
e 206 163
e 206 205
e 206 303
e 206 437
e 206 440
e 207 92
e 207 104
e 207 133
e 207 176
e 207 244
e 207 364
e 207 415
e 208 72
e 208 111
e 208 116
e 208 130
e 208 132
e 208 248
e 208 420
e 209 65
e 209 74
e 209 95
e 209 328
e 209 358
e 209 428
e 209 470
e 210 137
e 210 157
e 210 171
e 210 188
e 210 203
e 210 265
e 210 284
e 211 93
e 211 209
e 211 245
e 211 285
e 211 296
e 211 350
e 211 417
e 212 107
e 212 122
e 212 208
e 212 277
e 212 340
e 212 350
e 212 471
e 213 106
e 213 222
e 213 235
e 213 281
e 213 283
e 213 391
e 213 405
e 214 99
e 214 299
e 214 316
e 214 350
e 214 420
e 214 444
e 214 455
e 215 38
e 215 48
e 215 100
e 215 128
e 215 263
e 215 341
e 215 466
e 216 12
e 216 85
e 216 122
e 216 214
e 216 270
e 216 336
e 216 377
e 217 57
e 217 75
e 217 224
e 217 330
e 217 340
e 217 363
e 217 470
e 218 24
e 218 33
e 218 70
e 218 71
e 218 268
e 218 317
e 218 414
e 219 127
e 219 163
e 219 223
e 219 262
e 219 292
e 219 325
e 219 388
e 220 195
e 220 246
e 220 292
e 220 322
e 220 389
e 220 424
e 220 432
e 221 50
e 221 61
e 221 128
e 221 161
e 221 239
e 221 339
e 221 452
e 222 51
e 222 84
e 222 159
e 222 229
e 222 262
e 222 287
e 222 301
e 223 16
e 223 40
e 223 85
e 223 98
e 223 246
e 223 254
e 223 277
e 224 149
e 224 210
e 224 248
e 224 329
e 224 331
e 224 381
e 224 469
e 225 109
e 225 143
e 225 211
e 225 227
e 225 332
e 225 405
e 225 471
e 226 1
e 226 1
e 226 119
e 226 168
e 226 361
e 226 437
e 226 465
e 227 84
e 227 114
e 227 129
e 227 150
e 227 228
e 227 358
e 227 451
e 228 163
e 228 252
e 228 283
e 228 330
e 228 348
e 228 367
e 228 373
e 229 13
e 229 221
e 229 232
e 229 244
e 229 256
e 229 291
e 229 449
e 230 72
e 230 86
e 230 91
e 230 111
e 230 213
e 230 315
e 230 322
e 231 43
e 231 52
e 231 68
e 231 229
e 231 396
e 231 438
e 231 438
e 232 16
e 232 27
e 232 37
e 232 360
e 232 361
e 232 394
e 232 438
e 233 14
e 233 91
e 233 110
e 233 266
e 233 300
e 233 320
e 233 354
e 234 43
e 234 64
e 234 157
e 234 167
e 234 203
e 234 254
e 234 266
e 235 1
e 235 16
e 235 192
e 235 263
e 235 334
e 235 464
e 235 479
e 236 158
e 236 182
e 236 212
e 236 249
e 236 259
e 236 291
e 236 480
e 237 64
e 237 78
e 237 166
e 237 367
e 237 403
e 237 414
e 237 471
e 238 18
e 238 148
e 238 155
e 238 205
e 238 242
e 238 275
e 238 332
e 239 37
e 239 58
e 239 115
e 239 223
e 239 265
e 239 454
e 239 458
e 240 48
e 240 76
e 240 176
e 240 253
e 240 266
e 240 428
e 240 465
e 241 15
e 241 184
e 241 306
e 241 360
e 241 411
e 241 411
e 241 416
e 242 14
e 242 165
e 242 252
e 242 252
e 242 261
e 242 276
e 242 330
e 243 112
e 243 124
e 243 141
e 243 143
e 243 174
e 243 288
e 243 295
e 244 22
e 244 140
e 244 177
e 244 231
e 244 341
e 244 364
e 244 365
e 245 65
e 245 71
e 245 124
e 245 162
e 245 312
e 245 327
e 245 421
e 246 2
e 246 16
e 246 50
e 246 183
e 246 185
e 246 359
e 246 480
e 247 87
e 247 100
e 247 152
e 247 316
e 247 350
e 247 381
e 247 416
e 248 12
e 248 99
e 248 197
e 248 265
e 248 296
e 248 301
e 248 356
e 249 195
e 249 239
e 249 381
e 249 404
e 249 438
e 249 451
e 249 452
e 250 28
e 250 38
e 250 88
e 250 95
e 250 129
e 250 221
e 250 298
e 251 35
e 251 39
e 251 92
e 251 92
e 251 359
e 251 406
e 251 415
e 252 146
e 252 178
e 252 289
e 252 321
e 252 329
e 252 350
e 252 461
e 253 37
e 253 114
e 253 141
e 253 145
e 253 308
e 253 397
e 253 419
e 254 126
e 254 138
e 254 173
e 254 332
e 254 354
e 254 383
e 254 449
e 255 43
e 255 43
e 255 134
e 255 318
e 255 387
e 255 419
e 255 420
e 256 80
e 256 334
e 256 336
e 256 372
e 256 401
e 256 409
e 256 424
e 257 18
e 257 38
e 257 77
e 257 259
e 257 264
e 257 398
e 257 436
e 258 156
e 258 238
e 258 345
e 258 410
e 258 424
e 258 437
e 258 449
e 259 6
e 259 38
e 259 88
e 259 98
e 259 343
e 259 375
e 259 410
e 260 71
e 260 75
e 260 88
e 260 130
e 260 225
e 260 297
e 260 388
e 261 25
e 261 172
e 261 216
e 261 223
e 261 370
e 261 397
e 261 444
e 262 180
e 262 195
e 262 242
e 262 248
e 262 299
e 262 306
e 262 353
e 263 151
e 263 151
e 263 165
e 263 207
e 263 368
e 263 430
e 263 446
e 264 110
e 264 154
e 264 168
e 264 203
e 264 277
e 264 449
e 264 452
e 265 59
e 265 60
e 265 66
e 265 322
e 265 397
e 265 399
e 265 453
e 266 24
e 266 67
e 266 69
e 266 94
e 266 103
e 266 286
e 266 381
e 267 4
e 267 187
e 267 237
e 267 253
e 267 362
e 267 433
e 267 470
e 268 6
e 268 40
e 268 159
e 268 181
e 268 381
e 268 404
e 268 457
e 269 49
e 269 80
e 269 134
e 269 163
e 269 291
e 269 372
e 269 439
e 270 65
e 270 232
e 270 305
e 270 311
e 270 464
e 270 466
e 270 476
e 271 37
e 271 93
e 271 99
e 271 220
e 271 344
e 271 379
e 271 379
e 272 51
e 272 63
e 272 145
e 272 149
e 272 225
e 272 279
e 272 411
e 273 60
e 273 65
e 273 107
e 273 270
e 273 312
e 273 355
e 273 386
e 274 17
e 274 65
e 274 86
e 274 227
e 274 248
e 274 269
e 274 442
e 275 190
e 275 210
e 275 232
e 275 254
e 275 382
e 275 386
e 275 402
e 276 131
e 276 155
e 276 185
e 276 239
e 276 377
e 276 474
e 276 479
e 277 21
e 277 47
e 277 63
e 277 91
e 277 208
e 277 244
e 277 449
e 278 101
e 278 115
e 278 196
e 278 204
e 278 228
e 278 287
e 278 310
e 279 15
e 279 98
e 279 186
e 279 196
e 279 224
e 279 240
e 279 306
e 280 97
e 280 107
e 280 140
e 280 176
e 280 183
e 280 277
e 280 431
e 281 181
e 281 196
e 281 223
e 281 329
e 281 331
e 281 383
e 281 429
e 282 12
e 282 153
e 282 196
e 282 285
e 282 286
e 282 315
e 282 347
e 283 30
e 283 130
e 283 188
e 283 239
e 283 307
e 283 382
e 283 398
e 284 41
e 284 141
e 284 181
e 284 188
e 284 212
e 284 365
e 284 380
e 285 75
e 285 171
e 285 173
e 285 294
e 285 315
e 285 326
e 285 377
e 286 41
e 286 135
e 286 221
e 286 227
e 286 327
e 286 371
e 286 407
e 287 93
e 287 94
e 287 227
e 287 291
e 287 417
e 287 420
e 287 431
e 288 62
e 288 174
e 288 280
e 288 309
e 288 400
e 288 459
e 288 460
e 289 119
e 289 257
e 289 311
e 289 352
e 289 370
e 289 370
e 289 437
e 290 6
e 290 111
e 290 205
e 290 250
e 290 254
e 290 316
e 290 440
e 291 70
e 291 197
e 291 249
e 291 275
e 291 285
e 291 341
e 291 476
e 292 21
e 292 45
e 292 243
e 292 271
e 292 277
e 292 332
e 292 466
e 293 26
e 293 93
e 293 162
e 293 207
e 293 265
e 293 355
e 293 445
e 294 4
e 294 36
e 294 275
e 294 292
e 294 344
e 294 463
e 294 474
e 295 16
e 295 120
e 295 137
e 295 161
e 295 198
e 295 199
e 295 363
e 296 76
e 296 133
e 296 228
e 296 276
e 296 279
e 296 324
e 296 345
e 297 20
e 297 156
e 297 171
e 297 184
e 297 196
e 297 333
e 297 338
e 298 95
e 298 128
e 298 138
e 298 302
e 298 328
e 298 385
e 298 420
e 299 51
e 299 189
e 299 197
e 299 203
e 299 207
e 299 302
e 299 439
e 300 111
e 300 119
e 300 143
e 300 149
e 300 368
e 300 431
e 300 480
e 301 24
e 301 28
e 301 96
e 301 122
e 301 182
e 301 258
e 301 291
e 302 46
e 302 198
e 302 306
e 302 317
e 302 346
e 302 349
e 302 369
e 303 24
e 303 67
e 303 164
e 303 164
e 303 220
e 303 316
e 303 376
e 304 92
e 304 141
e 304 142
e 304 337
e 304 366
e 304 370
e 304 430
e 305 91
e 305 271
e 305 288
e 305 308
e 305 317
e 305 430
e 305 452
e 306 73
e 306 120
e 306 212
e 306 213
e 306 240
e 306 330
e 306 403
e 307 27
e 307 78
e 307 148
e 307 160
e 307 285
e 307 417
e 307 452
e 308 16
e 308 68
e 308 78
e 308 181
e 308 183
e 308 297
e 308 346
e 309 57
e 309 107
e 309 107
e 309 120
e 309 235
e 309 375
e 309 479
e 310 194
e 310 195
e 310 232
e 310 358
e 310 391
e 310 406
e 310 444
e 311 140
e 311 218
e 311 277
e 311 327
e 311 388
e 311 425
e 311 478
e 312 1
e 312 47
e 312 170
e 312 173
e 312 202
e 312 224
e 312 325
e 313 53
e 313 95
e 313 279
e 313 320
e 313 375
e 313 396
e 313 420
e 314 112
e 314 219
e 314 223
e 314 260
e 314 329
e 314 390
e 314 398
e 315 24
e 315 147
e 315 236
e 315 278
e 315 326
e 315 353
e 315 473
e 316 89
e 316 275
e 316 325
e 316 336
e 316 365
e 316 397
e 316 473
e 317 35
e 317 79
e 317 144
e 317 236
e 317 252
e 317 273
e 317 469
e 318 34
e 318 37
e 318 337
e 318 341
e 318 394
e 318 443
e 318 480
e 319 59
e 319 123
e 319 200
e 319 205
e 319 294
e 319 449
e 319 464
e 320 32
e 320 140
e 320 155
e 320 205
e 320 228
e 320 247
e 320 384
e 321 53
e 321 72
e 321 92
e 321 188
e 321 199
e 321 299
e 321 351
e 322 21
e 322 63
e 322 76
e 322 97
e 322 99
e 322 216
e 322 378
e 323 192
e 323 202
e 323 237
e 323 292
e 323 332
e 323 417
e 323 463
e 324 32
e 324 90
e 324 108
e 324 307
e 324 400
e 324 406
e 324 461
e 325 36
e 325 121
e 325 132
e 325 166
e 325 206
e 325 265
e 325 431
e 326 258
e 326 285
e 326 341
e 326 378
e 326 395
e 326 452
e 326 456
e 327 7
e 327 39
e 327 131
e 327 160
e 327 206
e 327 402
e 327 409
e 328 14
e 328 184
e 328 211
e 328 215
e 328 283
e 328 429
e 328 447
e 329 13
e 329 75
e 329 249
e 329 346
e 329 381
e 329 412
e 329 476
e 330 24
e 330 147
e 330 235
e 330 338
e 330 373
e 330 375
e 330 440
e 331 2
e 331 65
e 331 75
e 331 90
e 331 134
e 331 159
e 331 402
e 332 47
e 332 93
e 332 165
e 332 181
e 332 397
e 332 455
e 332 462
e 333 30
e 333 68
e 333 124
e 333 138
e 333 192
e 333 374
e 333 393
e 334 182
e 334 224
e 334 229
e 334 236
e 334 263
e 334 413
e 334 456
e 335 40
e 335 121
e 335 145
e 335 158
e 335 274
e 335 391
e 335 474
e 336 105
e 336 194
e 336 316
e 336 318
e 336 339
e 336 418
e 336 423
e 337 72
e 337 105
e 337 108
e 337 131
e 337 152
e 337 234
e 337 268
e 338 52
e 338 149
e 338 275
e 338 395
e 338 412
e 338 438
e 338 465
e 339 26
e 339 28
e 339 51
e 339 86
e 339 135
e 339 336
e 339 389
e 340 52
e 340 172
e 340 174
e 340 254
e 340 319
e 340 329
e 340 375
e 341 36
e 341 137
e 341 218
e 341 225
e 341 328
e 341 391
e 341 424
e 342 1
e 342 142
e 342 244
e 342 249
e 342 259
e 342 267
e 342 458
e 343 79
e 343 177
e 343 201
e 343 222
e 343 258
e 343 276
e 343 321
e 344 100
e 344 106
e 344 113
e 344 160
e 344 272
e 344 297
e 344 435
e 345 35
e 345 183
e 345 189
e 345 286
e 345 344
e 345 423
e 345 477
e 346 99
e 346 235
e 346 261
e 346 270
e 346 298
e 346 420
e 346 428
e 347 15
e 347 80
e 347 87
e 347 117
e 347 330
e 347 344
e 347 439
e 348 12
e 348 143
e 348 213
e 348 272
e 348 345
e 348 402
e 348 448
e 349 67
e 349 203
e 349 286
e 349 373
e 349 420
e 349 442
e 349 455
e 350 14
e 350 52
e 350 105
e 350 108
e 350 209
e 350 360
e 350 397
e 351 38
e 351 75
e 351 144
e 351 205
e 351 244
e 351 248
e 351 329
e 352 50
e 352 52
e 352 56
e 352 153
e 352 202
e 352 267
e 352 444
e 353 14
e 353 131
e 353 172
e 353 251
e 353 391
e 353 409
e 353 424
e 354 187
e 354 222
e 354 267
e 354 304
e 354 329
e 354 456
e 354 472
e 355 46
e 355 201
e 355 215
e 355 234
e 355 318
e 355 318
e 355 432
e 356 156
e 356 156
e 356 210
e 356 251
e 356 266
e 356 371
e 356 462
e 357 81
e 357 101
e 357 150
e 357 294
e 357 399
e 357 404
e 357 473
e 358 83
e 358 89
e 358 97
e 358 118
e 358 145
e 358 272
e 358 316
e 359 13
e 359 22
e 359 200
e 359 210
e 359 351
e 359 365
e 359 424
e 360 13
e 360 76
e 360 203
e 360 293
e 360 308
e 360 316
e 360 399
e 361 65
e 361 96
e 361 99
e 361 306
e 361 390
e 361 433
e 361 438
e 362 97
e 362 137
e 362 196
e 362 218
e 362 323
e 362 456
e 362 464
e 363 9
e 363 80
e 363 89
e 363 150
e 363 171
e 363 196
e 363 472
e 364 22
e 364 89
e 364 139
e 364 357
e 364 431
e 364 434
e 364 454
e 365 35
e 365 48
e 365 70
e 365 186
e 365 227
e 365 388
e 365 433
e 366 73
e 366 98
e 366 121
e 366 136
e 366 141
e 366 169
e 366 303
e 367 65
e 367 128
e 367 255
e 367 261
e 367 315
e 367 323
e 367 408
e 368 39
e 368 246
e 368 326
e 368 358
e 368 411
e 368 454
e 368 478
e 369 41
e 369 74
e 369 148
e 369 162
e 369 295
e 369 418
e 369 464
e 370 7
e 370 98
e 370 116
e 370 149
e 370 167
e 370 324
e 370 406
e 371 153
e 371 160
e 371 207
e 371 258
e 371 289
e 371 299
e 371 327
e 372 4
e 372 159
e 372 162
e 372 232
e 372 323
e 372 356
e 372 455
e 373 42
e 373 51
e 373 132
e 373 201
e 373 287
e 373 413
e 373 452
e 374 115
e 374 146
e 374 248
e 374 267
e 374 308
e 374 337
e 374 404
e 375 62
e 375 112
e 375 186
e 375 248
e 375 276
e 375 307
e 375 396
e 376 76
e 376 136
e 376 169
e 376 205
e 376 295
e 376 394
e 376 442
e 377 47
e 377 47
e 377 48
e 377 77
e 377 174
e 377 367
e 377 373
e 378 82
e 378 344
e 378 362
e 378 404
e 378 412
e 378 417
e 378 480
e 379 82
e 379 98
e 379 179
e 379 213
e 379 261
e 379 317
e 379 327
e 380 15
e 380 78
e 380 224
e 380 251
e 380 290
e 380 370
e 380 447
e 381 157
e 381 213
e 381 232
e 381 251
e 381 291
e 381 379
e 381 412
e 382 54
e 382 97
e 382 178
e 382 355
e 382 374
e 382 425
e 382 436
e 383 58
e 383 247
e 383 255
e 383 269
e 383 372
e 383 453
e 383 463
e 384 108
e 384 133
e 384 133
e 384 185
e 384 271
e 384 352
e 384 424
e 385 11
e 385 26
e 385 119
e 385 395
e 385 400
e 385 438
e 385 451
e 386 4
e 386 22
e 386 46
e 386 52
e 386 369
e 386 382
e 386 423
e 387 92
e 387 101
e 387 185
e 387 197
e 387 199
e 387 227
e 387 353
e 388 147
e 388 200
e 388 218
e 388 236
e 388 346
e 388 413
e 388 441
e 389 69
e 389 213
e 389 245
e 389 254
e 389 307
e 389 470
e 389 470
e 390 16
e 390 56
e 390 187
e 390 217
e 390 270
e 390 378
e 390 452
e 391 43
e 391 106
e 391 109
e 391 256
e 391 307
e 391 477
e 391 478
e 392 11
e 392 14
e 392 87
e 392 209
e 392 267
e 392 407
e 392 476
e 393 172
e 393 209
e 393 231
e 393 240
e 393 302
e 393 308
e 393 389
e 394 23
e 394 55
e 394 57
e 394 101
e 394 180
e 394 291
e 394 345
e 395 6
e 395 17
e 395 61
e 395 112
e 395 120
e 395 298
e 395 300
e 396 32
e 396 159
e 396 178
e 396 324
e 396 384
e 396 404
e 396 410
e 397 88
e 397 111
e 397 264
e 397 338
e 397 394
e 397 474
e 397 476
e 398 98
e 398 131
e 398 165
e 398 399
e 398 400
e 398 425
e 398 438
e 399 42
e 399 50
e 399 70
e 399 81
e 399 82
e 399 351
e 399 455
e 400 57
e 400 86
e 400 169
e 400 259
e 400 264
e 400 333
e 400 384
e 401 82
e 401 113
e 401 119
e 401 179
e 401 197
e 401 440
e 401 478
e 402 111
e 402 304
e 402 322
e 402 341
e 402 348
e 402 428
e 402 456
e 403 71
e 403 114
e 403 171
e 403 268
e 403 322
e 403 378
e 403 429
e 404 12
e 404 54
e 404 58
e 404 106
e 404 114
e 404 138
e 404 193
e 405 112
e 405 155
e 405 198
e 405 211
e 405 312
e 405 422
e 405 447
e 406 151
e 406 161
e 406 163
e 406 171
e 406 255
e 406 289
e 406 453
e 407 10
e 407 49
e 407 99
e 407 136
e 407 232
e 407 246
e 407 354
e 408 198
e 408 209
e 408 219
e 408 302
e 408 312
e 408 358
e 408 359
e 409 173
e 409 238
e 409 287
e 409 313
e 409 402
e 409 424
e 409 466
e 410 55
e 410 100
e 410 124
e 410 254
e 410 317
e 410 388
e 410 421
e 411 26
e 411 96
e 411 246
e 411 336
e 411 362
e 411 422
e 411 454
e 412 186
e 412 247
e 412 321
e 412 327
e 412 350
e 412 448
e 412 465
e 413 51
e 413 87
e 413 214
e 413 279
e 413 317
e 413 359
e 413 465
e 414 20
e 414 138
e 414 141
e 414 266
e 414 281
e 414 315
e 414 323
e 415 80
e 415 237
e 415 242
e 415 343
e 415 362
e 415 365
e 415 373
e 416 93
e 416 98
e 416 115
e 416 218
e 416 280
e 416 333
e 416 437
e 417 67
e 417 139
e 417 141
e 417 265
e 417 287
e 417 301
e 417 319
e 418 32
e 418 99
e 418 188
e 418 286
e 418 288
e 418 368
e 418 437
e 419 102
e 419 125
e 419 139
e 419 338
e 419 425
e 419 468
e 419 473
e 420 69
e 420 91
e 420 115
e 420 171
e 420 234
e 420 308
e 420 463
e 421 134
e 421 157
e 421 191
e 421 204
e 421 208
e 421 226
e 421 305
e 422 11
e 422 23
e 422 77
e 422 127
e 422 234
e 422 292
e 422 445
e 423 89
e 423 123
e 423 281
e 423 347
e 423 432
e 423 460
e 423 474
e 424 97
e 424 126
e 424 139
e 424 196
e 424 236
e 424 313
e 424 448
e 425 80
e 425 122
e 425 140
e 425 180
e 425 198
e 425 355
e 425 445
e 426 108
e 426 313
e 426 342
e 426 384
e 426 410
e 426 413
e 426 417
e 427 53
e 427 59
e 427 94
e 427 127
e 427 137
e 427 170
e 427 375
e 428 18
e 428 21
e 428 25
e 428 32
e 428 137
e 428 367
e 428 449
e 429 39
e 429 104
e 429 107
e 429 177
e 429 206
e 429 207
e 429 273
e 430 1
e 430 50
e 430 97
e 430 225
e 430 318
e 430 380
e 430 452
e 431 3
e 431 148
e 431 188
e 431 249
e 431 313
e 431 332
e 431 384
e 432 13
e 432 95
e 432 118
e 432 248
e 432 256
e 432 262
e 432 355
e 433 183
e 433 287
e 433 350
e 433 382
e 433 396
e 433 416
e 433 434
e 434 231
e 434 302
e 434 303
e 434 328
e 434 376
e 434 380
e 434 439
e 435 47
e 435 127
e 435 244
e 435 275
e 435 339
e 435 370
e 435 418
e 436 115
e 436 202
e 436 243
e 436 323
e 436 339
e 436 391
e 436 441
e 437 217
e 437 250
e 437 302
e 437 319
e 437 376
e 437 420
e 437 442
e 438 37
e 438 78
e 438 146
e 438 205
e 438 304
e 438 324
e 438 376
e 439 45
e 439 76
e 439 145
e 439 233
e 439 273
e 439 309
e 439 426
e 440 13
e 440 65
e 440 95
e 440 283
e 440 334
e 440 350
e 440 465
e 441 92
e 441 248
e 441 362
e 441 383
e 441 389
e 441 403
e 441 456
e 442 83
e 442 131
e 442 170
e 442 257
e 442 257
e 442 374
e 442 378
e 443 31
e 443 115
e 443 197
e 443 220
e 443 257
e 443 273
e 443 414
e 444 10
e 444 189
e 444 192
e 444 218
e 444 273
e 444 367
e 444 372
e 445 189
e 445 340
e 445 395
e 445 401
e 445 447
e 445 456
e 445 459
e 446 45
e 446 90
e 446 162
e 446 242
e 446 253
e 446 290
e 446 292
e 447 9
e 447 116
e 447 173
e 447 259
e 447 262
e 447 301
e 447 301
e 448 1
e 448 77
e 448 115
e 448 125
e 448 131
e 448 198
e 448 349
e 449 52
e 449 86
e 449 178
e 449 259
e 449 368
e 449 422
e 449 447
e 450 26
e 450 112
e 450 153
e 450 260
e 450 298
e 450 320
e 450 422
e 451 4
e 451 4
e 451 48
e 451 129
e 451 365
e 451 395
e 451 458
e 452 134
e 452 162
e 452 221
e 452 267
e 452 277
e 452 334
e 452 393
e 453 23
e 453 111
e 453 113
e 453 233
e 453 267
e 453 285
e 453 381
e 454 58
e 454 101
e 454 295
e 454 323
e 454 372
e 454 372
e 454 431
e 455 24
e 455 151
e 455 190
e 455 317
e 455 406
e 455 432
e 455 471
e 456 227
e 456 252
e 456 255
e 456 274
e 456 307
e 456 435
e 456 469
e 457 116
e 457 130
e 457 264
e 457 279
e 457 366
e 457 392
e 457 475
e 458 50
e 458 68
e 458 172
e 458 189
e 458 261
e 458 312
e 458 373
e 459 69
e 459 78
e 459 201
e 459 264
e 459 272
e 459 391
e 459 441
e 460 4
e 460 154
e 460 224
e 460 305
e 460 307
e 460 314
e 460 412
e 461 29
e 461 47
e 461 133
e 461 167
e 461 265
e 461 273
e 461 440
e 462 58
e 462 177
e 462 211
e 462 296
e 462 312
e 462 379
e 462 427
e 463 189
e 463 226
e 463 233
e 463 278
e 463 293
e 463 322
e 463 446
e 464 36
e 464 118
e 464 186
e 464 254
e 464 315
e 464 382
e 464 465
e 465 14
e 465 190
e 465 206
e 465 213
e 465 230
e 465 281
e 465 331
e 466 52
e 466 204
e 466 316
e 466 357
e 466 384
e 466 389
e 466 403
e 467 60
e 467 154
e 467 163
e 467 245
e 467 294
e 467 348
e 467 451
e 468 24
e 468 25
e 468 71
e 468 96
e 468 174
e 468 250
e 468 259
e 469 13
e 469 15
e 469 151
e 469 196
e 469 232
e 469 240
e 469 351
e 470 56
e 470 200
e 470 306
e 470 337
e 470 343
e 470 421
e 470 421
e 471 64
e 471 232
e 471 297
e 471 324
e 471 357
e 471 421
e 471 448
e 472 9
e 472 91
e 472 99
e 472 265
e 472 308
e 472 368
e 472 414
e 473 89
e 473 160
e 473 205
e 473 225
e 473 264
e 473 386
e 473 439
e 474 32
e 474 145
e 474 157
e 474 219
e 474 227
e 474 253
e 474 442
e 475 17
e 475 183
e 475 225
e 475 270
e 475 371
e 475 373
e 475 458
e 476 27
e 476 37
e 476 95
e 476 258
e 476 333
e 476 451
e 476 462
e 477 34
e 477 101
e 477 229
e 477 279
e 477 296
e 477 342
e 477 365
e 478 20
e 478 44
e 478 101
e 478 236
e 478 249
e 478 411
e 478 426
e 479 51
e 479 141
e 479 149
e 479 157
e 479 250
e 479 300
e 479 339
e 480 61
e 480 185
e 480 189
e 480 268
e 480 413
e 480 428
e 480 479
